(set-info :source |printed by MathSAT|)
(declare-fun a_0 () (Array Int Int))
(declare-fun a1 () (Array Int Int))
(declare-fun i () Int)
(declare-fun i1 () Int)
(declare-fun val () Int)
(declare-fun .x.3 () Int)
(declare-fun N_0 () Int)
(declare-fun .x.4 () Int)
(declare-fun i1_0 () Int)
(define-fun .def_8 () (Array Int Int) (! a_0 :next |a1|))
(define-fun .def_10 () Int (! i :next |i1|))
(define-fun .def_12 () Int (! val :next |.x.3|))
(define-fun .def_14 () Int (! N_0 :next |.x.4|))
(define-fun .def_37 () Int (! i1_0 :next |.xpv.1|))
(define-fun .def_35 () Bool (= .def_12 7))
(define-fun .def_33 () Bool (= .def_10 0))
(define-fun .def_36 () Bool (! (and .def_33 .def_35) :init true))
(define-fun .def_29 () Bool (<= .def_10 .def_14))
(define-fun .def_22 () (Array Int Int) (store .def_8 .def_10 .def_10))
(define-fun .def_24 () (Array Int Int) (store .def_8 .def_10 0))
(define-fun .def_25 () Bool (= .def_10 .def_12))
(define-fun .def_26 () (Array Int Int) (ite .def_25 .def_24 .def_22))
(define-fun .def_27 () Bool (= a1 .def_26))
(define-fun .def_19 () Int (* (- 1) i1))
(define-fun .def_20 () Int (+ .def_10 .def_19))
(define-fun .def_21 () Bool (= .def_20 (- 1)))
(define-fun .def_28 () Bool (and .def_21 .def_27))
(define-fun .def_30 () Bool (and .def_28 .def_29))
(define-fun .def_17 () Bool (= .def_12 .x.3))
(define-fun .def_31 () Bool (and .def_17 .def_30))
(define-fun .def_16 () Bool (= .def_14 .x.4))
(define-fun .def_32 () Bool (! (and .def_16 .def_31) :trans true))
(define-fun .def_45 () Bool (not .def_29))
(define-fun .def_43 () Bool (<= 0 .def_37))
(define-fun .def_39 () Int (select .def_8 .def_37))
(define-fun .def_40 () Bool (<= .def_39 .def_12))
(define-fun .def_41 () Bool (not .def_40))
(define-fun .def_38 () Bool (<= .def_37 .def_14))
(define-fun .def_42 () Bool (and .def_38 .def_41))
(define-fun .def_44 () Bool (and .def_42 .def_43))
(define-fun .def_46 () Bool (and .def_44 .def_45))
(define-fun .def_48 () Bool (! (not .def_46) :invar-property 0))
(assert true)
